min: c;

c = 2.79343617419534 * u1_t7_h4 + 3.98825692029618 * u1_t7_h5 + 4.0905262245137 * u1_t5_h6 + 4.0905262245137 * u1_t7_h6 + 3.66742830562569 * u1_t5_h7 + 3.66742830562569 * u1_t7_h7 + 3.66742830562569 * u1_t9_h7 + 5.26118945117036 * u1_t5_h8 + 5.26118945117036 * u1_t7_h8 + 5.26118945117036 * u1_t9_h8 + 5.26118945117036 * u1_t10_h8 + 4.56960798426267 * u1_t5_h9 + 4.56960798426267 * u1_t7_h9 + 4.56960798426267 * u1_t9_h9 + 4.56960798426267 * u1_t10_h9 + 4.99440760002073 * u1_t5_h10 + 4.99440760002073 * u1_t7_h10 + 4.99440760002073 * u1_t9_h10 + 4.99440760002073 * u1_t10_h10 + 3.50347431446777 * u1_t5_h11 + 3.50347431446777 * u1_t9_h11 + 3.50347431446777 * u1_t10_h11 + 6.10991893817869 * u1_t4_h12 + 6.10991893817869 * u1_t5_h12 + 6.10991893817869 * u1_t8_h12 + 6.10991893817869 * u1_t9_h12 + 6.10991893817869 * u1_t10_h12 + 4.52339764679289 * u1_t4_h13 + 4.52339764679289 * u1_t8_h13 + 4.52339764679289 * u1_t9_h13 + 4.52339764679289 * u1_t10_h13 + 5.75082019844879 * u1_t4_h14 + 5.75082019844879 * u1_t8_h14 + 5.75082019844879 * u1_t9_h14 + 5.75082019844879 * u1_t10_h14 + 6.09832972239459 * u1_t4_h15 + 6.09832972239459 * u1_t8_h15 + 5.82849458369282 * u1_t4_h16 + 5.82849458369282 * u1_t8_h16 + 6.48229431026069 * u1_t4_h17 + 6.48229431026069 * u1_t8_h17 + 6.67350352627062 * u1_t2_h18 + 6.67350352627062 * u1_t4_h18 + 6.67350352627062 * u1_t6_h18 + 6.67350352627062 * u1_t8_h18 + 6.0011654598552 * u1_t2_h19 + 6.0011654598552 * u1_t3_h19 + 6.0011654598552 * u1_t4_h19 + 6.0011654598552 * u1_t6_h19 + 5.62270811310521 * u1_t1_h20 + 5.62270811310521 * u1_t2_h20 + 5.62270811310521 * u1_t3_h20 + 5.62270811310521 * u1_t4_h20 + 5.62270811310521 * u1_t6_h20 + 5.67959736008211 * u1_t1_h21 + 5.67959736008211 * u1_t2_h21 + 5.67959736008211 * u1_t3_h21 + 5.67316369926387 * u1_t1_h22 + 5.67316369926387 * u1_t2_h22 + 5.30959600926692 * u1_t1_h23 + 5.30959600926692 * u1_t2_h23;
0 <= u1_t1_h20 <= 1;
0 <= u1_t1_h21 <= 1;
0 <= u1_t1_h22 <= 1;
0 <= u1_t1_h23 <= 1;
u1_t1_h20 + u1_t1_h21 + u1_t1_h22 + u1_t1_h23 = 1;
0 <= u1_t2_h18 <= 1;
0 <= u1_t2_h19 <= 1;
0 <= u1_t2_h20 <= 1;
0 <= u1_t2_h21 <= 1;
0 <= u1_t2_h22 <= 1;
0 <= u1_t2_h23 <= 1;
u1_t2_h18 + u1_t2_h19 + u1_t2_h20 + u1_t2_h21 + u1_t2_h22 + u1_t2_h23 = 2;
0 <= u1_t3_h19 <= 1;
0 <= u1_t3_h20 <= 1;
0 <= u1_t3_h21 <= 1;
u1_t3_h19 + u1_t3_h20 + u1_t3_h21 = 1;
0 <= u1_t4_h12 <= 1;
0 <= u1_t4_h13 <= 1;
0 <= u1_t4_h14 <= 1;
0 <= u1_t4_h15 <= 1;
0 <= u1_t4_h16 <= 1;
0 <= u1_t4_h17 <= 1;
0 <= u1_t4_h18 <= 1;
0 <= u1_t4_h19 <= 1;
0 <= u1_t4_h20 <= 1;
u1_t4_h12 + u1_t4_h13 + u1_t4_h14 + u1_t4_h15 + u1_t4_h16 + u1_t4_h17 + u1_t4_h18 + u1_t4_h19 + u1_t4_h20 = 3;
0 <= u1_t5_h6 <= 1;
0 <= u1_t5_h7 <= 1;
0 <= u1_t5_h8 <= 1;
0 <= u1_t5_h9 <= 1;
0 <= u1_t5_h10 <= 1;
0 <= u1_t5_h11 <= 1;
0 <= u1_t5_h12 <= 1;
u1_t5_h6 + u1_t5_h7 + u1_t5_h8 + u1_t5_h9 + u1_t5_h10 + u1_t5_h11 + u1_t5_h12 = 3;
0 <= u1_t6_h18 <= 1;
0 <= u1_t6_h19 <= 1;
0 <= u1_t6_h20 <= 1;
u1_t6_h18 + u1_t6_h19 + u1_t6_h20 = 2;
0 <= u1_t7_h4 <= 1;
0 <= u1_t7_h5 <= 1;
0 <= u1_t7_h6 <= 1;
0 <= u1_t7_h7 <= 1;
0 <= u1_t7_h8 <= 1;
0 <= u1_t7_h9 <= 1;
0 <= u1_t7_h10 <= 1;
u1_t7_h4 + u1_t7_h5 + u1_t7_h6 + u1_t7_h7 + u1_t7_h8 + u1_t7_h9 + u1_t7_h10 = 2;
0 <= u1_t8_h12 <= 1;
0 <= u1_t8_h13 <= 1;
0 <= u1_t8_h14 <= 1;
0 <= u1_t8_h15 <= 1;
0 <= u1_t8_h16 <= 1;
0 <= u1_t8_h17 <= 1;
0 <= u1_t8_h18 <= 1;
u1_t8_h12 + u1_t8_h13 + u1_t8_h14 + u1_t8_h15 + u1_t8_h16 + u1_t8_h17 + u1_t8_h18 = 2;
0 <= u1_t9_h7 <= 1;
0 <= u1_t9_h8 <= 1;
0 <= u1_t9_h9 <= 1;
0 <= u1_t9_h10 <= 1;
0 <= u1_t9_h11 <= 1;
0 <= u1_t9_h12 <= 1;
0 <= u1_t9_h13 <= 1;
0 <= u1_t9_h14 <= 1;
u1_t9_h7 + u1_t9_h8 + u1_t9_h9 + u1_t9_h10 + u1_t9_h11 + u1_t9_h12 + u1_t9_h13 + u1_t9_h14 = 3;
0 <= u1_t10_h8 <= 1;
0 <= u1_t10_h9 <= 1;
0 <= u1_t10_h10 <= 1;
0 <= u1_t10_h11 <= 1;
0 <= u1_t10_h12 <= 1;
0 <= u1_t10_h13 <= 1;
0 <= u1_t10_h14 <= 1;
u1_t10_h8 + u1_t10_h9 + u1_t10_h10 + u1_t10_h11 + u1_t10_h12 + u1_t10_h13 + u1_t10_h14 = 3;
